8 2 7 14 12 0 4 3 13 5 9 10 6 1 11
2 8 6 4 11 0 9 7 5 3 1 10 13 14 12
5 11 8 14 12 1 4 9 10 6 13 0 2 3 7
9 13 8 6 12 5 10 2 1 0 14 11 3 4 7
8 10 3 13 14 5 4 0 12 11 9 6 2 1 7
7 2 9 5 10 4 3 1 11 8 6 14 13 0 12
2 10 1 12 14 3 0 4 9 5 11 13 7 8 6
13 6 11 12 8 7 14 5 3 4 0 10 2 1 9
8 4 6 7 0 11 13 12 2 3 10 1 5 14 9
2 6 12 9 8 11 1 3 13 4 10 5 0 7 14
0 9 4 8 10 2 11 12 14 6 3 7 5 1 13
8 1 12 5 7 10 9 4 11 6 13 2 14 0 3
13 14 2 9 7 8 12 4 10 6 1 0 5 11 3
1 0 12 2 13 8 3 14 4 7 6 9 11 10 5
3 13 2 5 9 6 7 4 8 0 12 10 14 1 11